390876587718474260505,5,1,2,09,13,1,2,010,1,1,2,03,12,1,2,013,4,1,2,014,10,1,2,06,3,1,2,015,10,1,2,04,5,1,2,06,4,1,2,03,11,1,2,05,14,1,2,01,7,1,2,01,7,1,2,04,3,1,2,06,8,1,2,03,14,1,2,010,10,1,2,05,5,1,2,04,13,1,2,06,2,1,2,06,3,1,2,010,12,1,2,012,13,1,2,06,7,1,2,012,6,1,2,08,5,1,2,015,1,1,2,014,9,1,2,05,1,1,2,05,13,1,2,08,5,1,2,07,4,1,2,02,7,1,2,011,14,1,2,01,7,1,2,015,2,1,2,014,7,1,2,010,11,1,2,05,2,1,2,011,6,1,2,02,8,1,2,04,9,1,2,05,15,1,2,05,3,1,2,05,15,1,2,01,11,1,2,013,6,1,2,011,5,1,2,09,11,1,2,0